p cnf 194 740
-66 -194 0
-66 -193 0
-59 -192 0
-59 -191 0
-58 190 0
-65 -190 0
-58 -189 0
-51 -188 0
-51 187 0
-60 -187 0
-50 -186 0
-50 185 0
-57 186 0
-57 -185 0
-64 -186 0
-64 -185 0
-50 -184 0
-43 -183 0
-43 -182 0
-43 181 0
-52 182 0
-52 -181 0
-61 -182 0
-61 -181 0
-42 180 0
-42 179 0
-49 -180 0
-49 179 0
-56 180 0
-56 -179 0
-63 -180 0
-63 -179 0
-42 -178 0
-35 -177 0
-35 176 0
-35 175 0
-44 -176 0
-44 175 0
-53 176 0
-53 -175 0
-62 -176 0
-62 -175 0
-34 -174 0
-34 -173 0
-34 172 0
-41 174 0
-41 173 0
-41 -172 0
-48 -174 0
-48 173 0
-48 -172 0
-55 174 0
-55 -173 0
-55 -172 0
-62 -174 0
-62 -173 0
-62 -172 0
-34 -171 0
-27 -170 0
-27 -169 0
-27 -168 0
-27 167 0
-36 169 0
-36 168 0
-36 -167 0
-45 -169 0
-45 168 0
-45 -167 0
-54 169 0
-54 -168 0
-54 -167 0
-63 -169 0
-63 -168 0
-63 -167 0
-26 166 0
-26 -165 0
-26 164 0
-33 -166 0
-33 -165 0
-33 164 0
-40 166 0
-40 165 0
-40 -164 0
-47 -166 0
-47 165 0
-47 -164 0
-54 166 0
-54 -165 0
-54 -164 0
-61 -166 0
-61 -165 0
-61 -164 0
-26 -163 0
-19 -162 0
-19 161 0
-19 -160 0
-19 159 0
-28 -161 0
-28 -160 0
-28 159 0
-37 161 0
-37 160 0
-37 -159 0
-46 -161 0
-46 160 0
-46 -159 0
-55 161 0
-55 -160 0
-55 -159 0
-64 -161 0
-64 -160 0
-64 -159 0
-18 -158 0
-18 157 0
-18 156 0
-25 158 0
-25 -157 0
-25 156 0
-32 -158 0
-32 -157 0
-32 156 0
-39 158 0
-39 157 0
-39 -156 0
-46 -158 0
-46 157 0
-46 -156 0
-53 158 0
-53 -157 0
-53 -156 0
-60 -158 0
-60 -157 0
-60 -156 0
-18 -155 0
-11 -154 0
-11 -153 0
-11 152 0
-11 151 0
-20 153 0
-20 -152 0
-20 151 0
-29 -153 0
-29 -152 0
-29 151 0
-38 153 0
-38 152 0
-38 -151 0
-47 -153 0
-47 152 0
-47 -151 0
-56 153 0
-56 -152 0
-56 -151 0
-65 -153 0
-65 -152 0
-65 -151 0
-10 150 0
-10 149 0
-10 148 0
-17 -150 0
-17 149 0
-17 148 0
-24 150 0
-24 -149 0
-24 148 0
-31 -150 0
-31 -149 0
-31 148 0
-38 150 0
-38 149 0
-38 -148 0
-45 -150 0
-45 149 0
-45 -148 0
-52 150 0
-52 -149 0
-52 -148 0
-59 -150 0
-59 -149 0
-59 -148 0
-10 -147 0
-9 -146 0
-9 145 0
-9 144 0
-16 146 0
-16 -145 0
-16 144 0
-23 -146 0
-23 -145 0
-23 144 0
-30 146 0
-30 145 0
-30 -144 0
-37 -146 0
-37 145 0
-37 -144 0
-44 146 0
-44 -145 0
-44 -144 0
-51 -146 0
-51 -145 0
-51 -144 0
-9 143 0
-18 -143 0
-8 142 0
-8 -141 0
-8 140 0
-15 -142 0
-15 -141 0
-15 140 0
-22 142 0
-22 141 0
-22 -140 0
-29 -142 0
-29 141 0
-29 -140 0
-36 142 0
-36 -141 0
-36 -140 0
-43 -142 0
-43 -141 0
-43 -140 0
-8 -139 0
-8 138 0
-17 139 0
-17 -138 0
-26 -139 0
-26 -138 0
-7 -137 0
-7 -136 0
-7 135 0
-14 137 0
-14 136 0
-14 -135 0
-21 -137 0
-21 136 0
-21 -135 0
-28 137 0
-28 -136 0
-28 -135 0
-35 -137 0
-35 -136 0
-35 -135 0
-7 134 0
-7 133 0
-16 -134 0
-16 133 0
-25 134 0
-25 -133 0
-34 -134 0
-34 -133 0
-6 132 0
-6 131 0
-13 -132 0
-13 131 0
-20 132 0
-20 -131 0
-27 -132 0
-27 -131 0
-6 -130 0
-6 -129 0
-6 128 0
-15 130 0
-15 129 0
-15 -128 0
-24 -130 0
-24 129 0
-24 -128 0
-33 130 0
-33 -129 0
-33 -128 0
-42 -130 0
-42 -129 0
-42 -128 0
-5 -127 0
-5 126 0
-12 127 0
-12 -126 0
-19 -127 0
-19 -126 0
-5 125 0
-5 -124 0
-5 123 0
-14 -125 0
-14 -124 0
-14 123 0
-23 125 0
-23 124 0
-23 -123 0
-32 -125 0
-32 124 0
-32 -123 0
-41 125 0
-41 -124 0
-41 -123 0
-50 -125 0
-50 -124 0
-50 -123 0
-4 122 0
-11 -122 0
-4 -121 0
-4 120 0
-4 119 0
-13 121 0
-13 -120 0
-13 119 0
-22 -121 0
-22 -120 0
-22 119 0
-31 121 0
-31 120 0
-31 -119 0
-40 -121 0
-40 120 0
-40 -119 0
-49 121 0
-49 -120 0
-49 -119 0
-58 -121 0
-58 -120 0
-58 -119 0
-3 -118 0
-3 117 0
-3 116 0
-3 115 0
-12 -117 0
-12 116 0
-12 115 0
-21 117 0
-21 -116 0
-21 115 0
-30 -117 0
-30 -116 0
-30 115 0
-39 117 0
-39 116 0
-39 -115 0
-48 -117 0
-48 116 0
-48 -115 0
-57 117 0
-57 -116 0
-57 -115 0
-66 -117 0
-66 -116 0
-66 -115 0
66 58 50 42 34 26 18 10 0
-10 114 0
-10 113 0
-10 112 0
-18 -114 0
-18 113 0
-18 112 0
-26 114 0
-26 -113 0
-26 112 0
-34 -114 0
-34 -113 0
-34 112 0
-42 114 0
-42 113 0
-42 -112 0
-50 -114 0
-50 113 0
-50 -112 0
-58 114 0
-58 -113 0
-58 -112 0
-66 -114 0
-66 -113 0
-66 -112 0
65 57 49 41 33 25 17 9 0
-9 111 0
-9 110 0
-9 109 0
-17 -111 0
-17 110 0
-17 109 0
-25 111 0
-25 -110 0
-25 109 0
-33 -111 0
-33 -110 0
-33 109 0
-41 111 0
-41 110 0
-41 -109 0
-49 -111 0
-49 110 0
-49 -109 0
-57 111 0
-57 -110 0
-57 -109 0
-65 -111 0
-65 -110 0
-65 -109 0
64 56 48 40 32 24 16 8 0
-8 108 0
-8 107 0
-8 106 0
-16 -108 0
-16 107 0
-16 106 0
-24 108 0
-24 -107 0
-24 106 0
-32 -108 0
-32 -107 0
-32 106 0
-40 108 0
-40 107 0
-40 -106 0
-48 -108 0
-48 107 0
-48 -106 0
-56 108 0
-56 -107 0
-56 -106 0
-64 -108 0
-64 -107 0
-64 -106 0
63 55 47 39 31 23 15 7 0
-7 105 0
-7 104 0
-7 103 0
-15 -105 0
-15 104 0
-15 103 0
-23 105 0
-23 -104 0
-23 103 0
-31 -105 0
-31 -104 0
-31 103 0
-39 105 0
-39 104 0
-39 -103 0
-47 -105 0
-47 104 0
-47 -103 0
-55 105 0
-55 -104 0
-55 -103 0
-63 -105 0
-63 -104 0
-63 -103 0
62 54 46 38 30 22 14 6 0
-6 102 0
-6 101 0
-6 100 0
-14 -102 0
-14 101 0
-14 100 0
-22 102 0
-22 -101 0
-22 100 0
-30 -102 0
-30 -101 0
-30 100 0
-38 102 0
-38 101 0
-38 -100 0
-46 -102 0
-46 101 0
-46 -100 0
-54 102 0
-54 -101 0
-54 -100 0
-62 -102 0
-62 -101 0
-62 -100 0
61 53 45 37 29 21 13 5 0
-5 99 0
-5 98 0
-5 97 0
-13 -99 0
-13 98 0
-13 97 0
-21 99 0
-21 -98 0
-21 97 0
-29 -99 0
-29 -98 0
-29 97 0
-37 99 0
-37 98 0
-37 -97 0
-45 -99 0
-45 98 0
-45 -97 0
-53 99 0
-53 -98 0
-53 -97 0
-61 -99 0
-61 -98 0
-61 -97 0
60 52 44 36 28 20 12 4 0
-4 96 0
-4 95 0
-4 94 0
-12 -96 0
-12 95 0
-12 94 0
-20 96 0
-20 -95 0
-20 94 0
-28 -96 0
-28 -95 0
-28 94 0
-36 96 0
-36 95 0
-36 -94 0
-44 -96 0
-44 95 0
-44 -94 0
-52 96 0
-52 -95 0
-52 -94 0
-60 -96 0
-60 -95 0
-60 -94 0
59 51 43 35 27 19 11 3 0
-3 93 0
-3 92 0
-3 91 0
-11 -93 0
-11 92 0
-11 91 0
-19 93 0
-19 -92 0
-19 91 0
-27 -93 0
-27 -92 0
-27 91 0
-35 93 0
-35 92 0
-35 -91 0
-43 -93 0
-43 92 0
-43 -91 0
-51 93 0
-51 -92 0
-51 -91 0
-59 -93 0
-59 -92 0
-59 -91 0
-66 90 0
-66 89 0
-66 88 0
-65 -90 0
-65 89 0
-65 88 0
-64 90 0
-64 -89 0
-64 88 0
-63 -90 0
-63 -89 0
-63 88 0
-62 90 0
-62 89 0
-62 -88 0
-61 -90 0
-61 89 0
-61 -88 0
-60 90 0
-60 -89 0
-60 -88 0
-59 -90 0
-59 -89 0
-59 -88 0
-58 87 0
-58 86 0
-58 85 0
-57 -87 0
-57 86 0
-57 85 0
-56 87 0
-56 -86 0
-56 85 0
-55 -87 0
-55 -86 0
-55 85 0
-54 87 0
-54 86 0
-54 -85 0
-53 -87 0
-53 86 0
-53 -85 0
-52 87 0
-52 -86 0
-52 -85 0
-51 -87 0
-51 -86 0
-51 -85 0
-50 84 0
-50 83 0
-50 82 0
-49 -84 0
-49 83 0
-49 82 0
-48 84 0
-48 -83 0
-48 82 0
-47 -84 0
-47 -83 0
-47 82 0
-46 84 0
-46 83 0
-46 -82 0
-45 -84 0
-45 83 0
-45 -82 0
-44 84 0
-44 -83 0
-44 -82 0
-43 -84 0
-43 -83 0
-43 -82 0
-42 81 0
-42 80 0
-42 79 0
-41 -81 0
-41 80 0
-41 79 0
-40 81 0
-40 -80 0
-40 79 0
-39 -81 0
-39 -80 0
-39 79 0
-38 81 0
-38 80 0
-38 -79 0
-37 -81 0
-37 80 0
-37 -79 0
-36 81 0
-36 -80 0
-36 -79 0
-35 -81 0
-35 -80 0
-35 -79 0
-34 78 0
-34 77 0
-34 76 0
-33 -78 0
-33 77 0
-33 76 0
-32 78 0
-32 -77 0
-32 76 0
-31 -78 0
-31 -77 0
-31 76 0
-30 78 0
-30 77 0
-30 -76 0
-29 -78 0
-29 77 0
-29 -76 0
-28 78 0
-28 -77 0
-28 -76 0
-27 -78 0
-27 -77 0
-27 -76 0
-26 75 0
-26 74 0
-26 73 0
-25 -75 0
-25 74 0
-25 73 0
-24 75 0
-24 -74 0
-24 73 0
-23 -75 0
-23 -74 0
-23 73 0
-22 75 0
-22 74 0
-22 -73 0
-21 -75 0
-21 74 0
-21 -73 0
-20 75 0
-20 -74 0
-20 -73 0
-19 -75 0
-19 -74 0
-19 -73 0
-18 72 0
-18 71 0
-18 70 0
-17 -72 0
-17 71 0
-17 70 0
-16 72 0
-16 -71 0
-16 70 0
-15 -72 0
-15 -71 0
-15 70 0
-14 72 0
-14 71 0
-14 -70 0
-13 -72 0
-13 71 0
-13 -70 0
-12 72 0
-12 -71 0
-12 -70 0
-11 -72 0
-11 -71 0
-11 -70 0
-10 69 0
-10 68 0
-10 67 0
-9 -69 0
-9 68 0
-9 67 0
-8 69 0
-8 -68 0
-8 67 0
-7 -69 0
-7 -68 0
-7 67 0
-6 69 0
-6 68 0
-6 -67 0
-5 -69 0
-5 68 0
-5 -67 0
-4 69 0
-4 -68 0
-4 -67 0
-3 -69 0
-3 -68 0
-3 -67 0
1 0
-2 0
